c WARNING: for repeatability, setting FPU to use double precision
d VARIABLES            20421        
d CONSTRAINTS          78628        
c ============================[ Problem Statistics ]=============================
c |                                                                             |
c |  Number of variables:         20421                                         |
c |  Number of clauses:           78628                                         |
c |  Parse time:                   0.01 s                                       |
c |                                                                             |
c ============================[ Search Statistics ]==============================
c | Conflicts |          ORIGINAL         |          LEARNT          | Progress |
c |           |    Vars  Clauses Literals |    Limit  Clauses Lit/Cl |          |
c ===============================================================================
c |       100 |   14185    60222   147180 |    22081       97     22 | 30.537 % |
c |       250 |   14185    60147   147000 |    24289      246     34 | 30.537 % |
c |       475 |   14185    60147   147000 |    26718      471     43 | 30.537 % |
c |       812 |   14185    60147   147000 |    29390      808     64 | 30.537 % |
c |      1318 |   14185    60147   147000 |    32329     1314     75 | 30.537 % |
c |      2077 |   14185    60147   147000 |    35562     2073     73 | 30.537 % |
c |      3216 |   14185    60147   147000 |    39118     3212     69 | 30.537 % |
c |      4924 |   14185    60147   147000 |    43030     4920     65 | 30.537 % |
c |      7486 |   14185    60147   147000 |    47333     7482     65 | 30.537 % |
c |     11330 |   14185    60147   147000 |    52066    11326     65 | 30.537 % |
c |     17096 |   14185    60147   147000 |    57273    17092     61 | 30.537 % |
c |     25745 |   14185    60147   147000 |    63000    25741     58 | 30.537 % |
c |     38719 |   14185    60147   147000 |    69300    38715     55 | 30.537 % |
c |     58180 |   14185    60147   147000 |    76230    58176     57 | 30.537 % |
c |     87372 |   14185    60147   147000 |    83854    22949     45 | 30.537 % |
c ===============================================================================
c restarts              : 346
c conflicts             : 127116         (6302 /sec)
c decisions             : 188370         (0.00 % random) (9339 /sec)
c propagations          : 62473048       (3097439 /sec)
c conflict literals     : 6267557        (56.36 % deleted)
d RESTARTS             346
d FAILURES             127116       
d NODES                188370       
d BACKTRACKS           188370       
d PROPAGATIONS         62473048     
d NOGOODSIZE           49.31 
d MEMORY               49.00 
d TIME                 20.1693 

s UNSATISFIABLE
